# Objective value = 799
E 799
Q(1,7) 0
Q(1,21) 0
Q(1,22) 0
Q(1,29) 1
Q(2,16) 0
Q(2,25) 0
Q(2,28) 1
Q(3,9) 0
Q(3,10) 0
Q(3,11) 0
Q(3,12) 0
Q(3,15) 0
Q(3,27) 1
Q(4,17) 0
Q(4,26) 1
Q(5,16) 0
Q(5,25) 1
Q(5,28) 0
Q(7,17) 0
Q(8,19) 0
Q(8,20) 0
Q(8,21) 0
Q(8,22) 0
Q(8,23) 1
Q(8,29) 0
Q(9,21) 0
Q(9,22) 1
Q(9,29) 0
Q(10,21) 1
Q(11,20) 1
Q(11,21) 0
Q(12,18) 0
Q(14,20) 0
Q(14,21) 0
Q(15,25) 0
Q(15,28) 0
Q(16,24) 0
Q(16,26) 0
Q(20,27) 0
H(1,6) 0
H(1,7) 0
H(1,13) 0
H(1,16) 0
H(2,6) 0
H(2,16) 0
H(3,8) 0
H(3,9) 0
H(3,10) 0
H(3,11) 0
H(3,12) 0
H(3,14) 0
H(3,15) 0
H(3,17) 0
H(4,8) 0
H(4,9) 0
H(4,10) 0
H(4,11) 0
H(4,12) 0
H(4,14) 0
H(4,15) 0
H(4,17) 0
H(5,16) 0
H(5,20) 0
H(5,21) 0
H(6,10) 0
H(6,11) 0
H(6,12) 0
H(6,14) 0
H(6,15) 0
H(6,17) 0
H(7,12) 0
H(7,15) 0
H(7,17) 0
H(8,13) 0
H(8,16) 0
H(8,18) 0
H(8,19) 0
H(8,20) 0
H(8,21) 0
H(8,22) 0
H(8,23) 0
H(9,13) 0
H(9,16) 0
H(9,18) 0
H(9,19) 0
H(9,20) 0
H(9,21) 0
H(9,22) 0
H(9,23) 0
H(9,25) 0
H(10,16) 0
H(10,20) 0
H(10,21) 0
H(10,25) 0
H(11,16) 0
H(11,20) 0
H(11,21) 0
H(11,25) 0
H(12,16) 0
H(12,18) 0
H(12,19) 0
H(12,20) 0
H(12,21) 0
H(12,22) 0
H(12,23) 0
H(12,25) 0
H(12,28) 0
H(13,17) 1
H(14,20) 0
H(14,21) 0
H(14,25) 0
H(14,28) 0
H(15,19) 0
H(15,20) 0
H(15,21) 0
H(15,22) 0
H(15,23) 0
H(15,25) 0
H(15,28) 0
H(15,29) 0
H(16,24) 0
H(16,26) 0
H(16,27) 0
H(17,21) 0
H(17,22) 0
H(17,23) 0
H(17,25) 0
H(17,28) 0
H(17,29) 0
H(20,24) 0
H(20,26) 0
H(20,27) 0
H(21,26) 0
H(21,27) 0
H(24,28) 0
I(1,3,8,13) 0
I(1,3,9,13) 0
I(1,3,10,13) 0
I(1,3,10,16) 0
I(1,3,11,13) 0
I(1,3,11,16) 0
I(1,3,12,16) 0
I(1,3,12,18) 0
I(1,3,14,16) 0
I(1,3,14,18) 0
I(1,3,14,19) 0
I(1,3,14,20) 0
I(1,3,15,18) 0
I(1,3,15,19) 0
I(1,3,15,20) 0
I(1,3,15,21) 0
I(1,3,17,19) 0
I(1,3,17,20) 0
I(1,3,17,21) 0
I(1,3,17,22) 0
I(1,3,17,23) 0
I(1,3,24,28) 0
I(1,3,24,29) 0
I(1,3,26,28) 0
I(1,3,26,29) 0
I(1,4,8,13) 0
I(1,4,9,13) 0
I(1,4,10,13) 0
I(1,4,10,16) 0
I(1,4,11,13) 0
I(1,4,11,16) 0
I(1,4,12,16) 0
I(1,4,12,18) 0
I(1,4,14,16) 0
I(1,4,14,18) 0
I(1,4,14,19) 0
I(1,4,14,20) 0
I(1,4,15,18) 0
I(1,4,15,19) 0
I(1,4,15,20) 0
I(1,4,15,21) 0
I(1,4,17,19) 0
I(1,4,17,20) 0
I(1,4,17,21) 0
I(1,4,17,22) 0
I(1,4,17,23) 0
I(1,4,24,28) 0
I(1,4,24,29) 0
I(1,4,26,28) 0
I(1,4,26,29) 0
I(1,5,16,18) 0
I(1,5,16,19) 0
I(1,5,16,20) 0
I(1,5,16,21) 0
I(1,5,16,22) 0
I(1,5,20,22) 0
I(1,5,20,23) 0
I(1,5,20,25) 0
I(1,5,21,23) 0
I(1,5,21,25) 0
I(1,5,25,28) 0
I(1,5,25,29) 0
I(1,6,10,13) 0
I(1,6,10,16) 0
I(1,6,11,13) 0
I(1,6,11,16) 0
I(1,6,12,16) 0
I(1,6,12,18) 0
I(1,6,14,16) 0
I(1,6,14,18) 0
I(1,6,14,19) 0
I(1,6,14,20) 0
I(1,6,15,18) 0
I(1,6,15,19) 0
I(1,6,15,20) 0
I(1,6,15,21) 0
I(1,6,17,19) 0
I(1,6,17,20) 0
I(1,6,17,21) 0
I(1,6,17,22) 0
I(1,6,17,23) 0
I(1,6,24,28) 0
I(1,6,24,29) 0
I(1,6,26,28) 0
I(1,6,26,29) 0
I(1,7,12,16) 0
I(1,7,12,18) 0
I(1,7,15,18) 0
I(1,7,15,19) 0
I(1,7,15,20) 0
I(1,7,15,21) 0
I(1,7,17,19) 0
I(1,7,17,20) 0
I(1,7,17,21) 0
I(1,7,17,22) 0
I(1,7,17,23) 0
I(2,4,10,16) 0
I(2,4,11,16) 0
I(2,4,12,16) 0
I(2,4,14,16) 0
I(2,4,14,20) 0
I(2,4,15,20) 0
I(2,4,15,21) 0
I(2,4,17,20) 0
I(2,4,17,21) 0
I(2,4,24,28) 0
I(2,4,26,28) 0
I(2,5,16,20) 0
I(2,5,16,21) 0
I(2,5,20,25) 0
I(2,5,21,25) 0
I(2,5,25,28) 0
I(2,6,10,16) 0
I(2,6,11,16) 0
I(2,6,12,16) 0
I(2,6,14,16) 0
I(2,6,14,20) 0
I(2,6,15,20) 0
I(2,6,15,21) 0
I(2,6,17,20) 0
I(2,6,17,21) 0
I(2,6,24,28) 0
I(2,6,26,28) 0
I(2,7,12,16) 0
I(2,7,15,20) 0
I(2,7,15,21) 0
I(2,7,17,20) 0
I(2,7,17,21) 0
I(2,8,13,16) 0
I(2,8,16,20) 0
I(2,8,16,21) 0
I(2,8,18,20) 0
I(2,8,18,21) 0
I(2,8,19,21) 0
I(2,8,19,25) 0
I(2,8,20,25) 0
I(2,8,21,25) 0
I(2,8,22,25) 0
I(2,8,22,28) 0
I(2,8,23,25) 0
I(2,8,23,28) 0
I(2,8,25,28) 0
I(3,5,20,24) 0
I(3,5,20,26) 0
I(3,5,21,24) 0
I(3,5,21,26) 0
I(3,5,21,27) 0
I(3,5,25,27) 0
I(3,6,10,12) 0
I(3,6,10,14) 0
I(3,6,10,15) 0
I(3,6,11,14) 0
I(3,6,11,15) 0
I(3,6,11,17) 0
I(3,6,12,14) 0
I(3,6,12,15) 0
I(3,6,12,17) 0
I(3,6,14,17) 0
I(3,6,15,17) 0
I(3,6,24,26) 0
I(3,6,24,27) 0
I(3,7,12,14) 0
I(3,7,12,15) 0
I(3,7,12,17) 0
I(3,7,15,17) 0
I(3,8,13,15) 0
I(3,8,13,17) 0
I(3,8,18,24) 0
I(3,8,19,24) 0
I(3,8,20,24) 0
I(3,8,20,26) 0
I(3,8,21,24) 0
I(3,8,21,26) 0
I(3,8,21,27) 0
I(3,8,22,24) 0
I(3,8,22,26) 0
I(3,8,22,27) 0
I(3,8,23,26) 0
I(3,8,23,27) 0
I(3,8,25,27) 0
I(3,9,13,15) 0
I(3,9,13,17) 0
I(3,9,18,24) 0
I(3,9,19,24) 0
I(3,9,20,24) 0
I(3,9,20,26) 0
I(3,9,21,24) 0
I(3,9,21,26) 0
I(3,9,21,27) 0
I(3,9,22,24) 0
I(3,9,22,26) 0
I(3,9,22,27) 0
I(3,9,23,26) 0
I(3,9,23,27) 0
I(3,9,25,27) 0
I(4,6,10,12) 0
I(4,6,10,14) 0
I(4,6,10,15) 0
I(4,6,11,14) 0
I(4,6,11,15) 0
I(4,6,11,17) 0
I(4,6,12,14) 0
I(4,6,12,15) 0
I(4,6,12,17) 0
I(4,6,14,17) 0
I(4,6,15,17) 0
I(4,6,24,26) 0
I(4,6,24,27) 0
I(4,7,12,14) 0
I(4,7,12,15) 0
I(4,7,12,17) 0
I(4,7,15,17) 0
I(4,8,13,15) 0
I(4,8,13,17) 0
I(4,8,18,24) 0
I(4,8,19,24) 0
I(4,8,20,24) 0
I(4,8,20,26) 0
I(4,8,21,24) 0
I(4,8,21,26) 0
I(4,8,21,27) 0
I(4,8,22,24) 0
I(4,8,22,26) 0
I(4,8,22,27) 0
I(4,8,23,26) 0
I(4,8,23,27) 0
I(4,8,25,27) 0
I(4,9,13,15) 0
I(4,9,13,17) 0
I(4,9,18,24) 0
I(4,9,19,24) 0
I(4,9,20,24) 0
I(4,9,20,26) 0
I(4,9,21,24) 0
I(4,9,21,26) 0
I(4,9,21,27) 0
I(4,9,22,24) 0
I(4,9,22,26) 0
I(4,9,22,27) 0
I(4,9,23,26) 0
I(4,9,23,27) 0
I(4,9,25,27) 0
I(4,10,20,24) 0
I(4,10,20,26) 0
I(4,10,21,24) 0
I(4,10,21,26) 0
I(4,10,21,27) 0
I(4,10,25,27) 0
I(5,7,12,16) 0
I(5,7,15,20) 0
I(5,7,15,21) 0
I(5,7,17,20) 0
I(5,7,17,21) 0
I(5,8,13,16) 0
I(5,8,16,20) 0
I(5,8,16,21) 0
I(5,8,18,20) 0
I(5,8,18,21) 0
I(5,8,19,21) 0
I(5,8,19,25) 0
I(5,8,20,25) 0
I(5,8,21,25) 0
I(5,8,22,25) 0
I(5,8,22,28) 0
I(5,8,23,25) 0
I(5,8,23,28) 0
I(5,8,25,28) 0
I(5,9,13,16) 0
I(5,9,16,20) 0
I(5,9,16,21) 0
I(5,9,18,20) 0
I(5,9,18,21) 0
I(5,9,19,21) 0
I(5,9,19,25) 0
I(5,9,20,25) 0
I(5,9,21,25) 0
I(5,9,22,25) 0
I(5,9,22,28) 0
I(5,9,23,25) 0
I(5,9,23,28) 0
I(5,9,25,28) 0
I(5,10,16,20) 0
I(5,10,16,21) 0
I(5,10,20,25) 0
I(5,10,21,25) 0
I(5,10,25,28) 0
I(5,11,16,20) 0
I(5,11,16,21) 0
I(5,11,20,25) 0
I(5,11,21,25) 0
I(5,11,25,28) 0
I(6,8,13,15) 0
I(6,8,13,17) 0
I(6,8,18,24) 0
I(6,8,19,24) 0
I(6,8,20,24) 0
I(6,8,20,26) 0
I(6,8,21,24) 0
I(6,8,21,26) 0
I(6,8,21,27) 0
I(6,8,22,24) 0
I(6,8,22,26) 0
I(6,8,22,27) 0
I(6,8,23,26) 0
I(6,8,23,27) 0
I(6,8,25,27) 0
I(6,9,13,15) 0
I(6,9,13,17) 0
I(6,9,18,24) 0
I(6,9,19,24) 0
I(6,9,20,24) 0
I(6,9,20,26) 0
I(6,9,21,24) 0
I(6,9,21,26) 0
I(6,9,21,27) 0
I(6,9,22,24) 0
I(6,9,22,26) 0
I(6,9,22,27) 0
I(6,9,23,26) 0
I(6,9,23,27) 0
I(6,9,25,27) 0
I(6,10,20,24) 0
I(6,10,20,26) 0
I(6,10,21,24) 0
I(6,10,21,26) 0
I(6,10,21,27) 0
I(6,10,25,27) 0
I(6,11,20,24) 0
I(6,11,20,26) 0
I(6,11,21,24) 0
I(6,11,21,26) 0
I(6,11,21,27) 0
I(6,11,25,27) 0
I(6,12,18,24) 0
I(6,12,19,24) 0
I(6,12,20,24) 0
I(6,12,20,26) 0
I(6,12,21,24) 0
I(6,12,21,26) 0
I(6,12,21,27) 0
I(6,12,22,24) 0
I(6,12,22,26) 0
I(6,12,22,27) 0
I(6,12,23,26) 0
I(6,12,23,27) 0
I(6,12,25,27) 0
I(7,9,13,15) 0
I(7,9,13,17) 0
I(8,10,16,18) 0
I(8,10,16,19) 0
I(8,10,16,20) 0
I(8,10,16,21) 0
I(8,10,16,22) 0
I(8,10,20,22) 0
I(8,10,20,23) 0
I(8,10,20,25) 0
I(8,10,21,23) 0
I(8,10,21,25) 0
I(8,10,25,28) 0
I(8,10,25,29) 0
I(8,11,16,18) 0
I(8,11,16,19) 0
I(8,11,16,20) 0
I(8,11,16,21) 0
I(8,11,16,22) 0
I(8,11,20,22) 0
I(8,11,20,23) 0
I(8,11,20,25) 0
I(8,11,21,23) 0
I(8,11,21,25) 0
I(8,11,25,28) 0
I(8,11,25,29) 0
I(8,12,16,18) 0
I(8,12,16,19) 0
I(8,12,16,20) 0
I(8,12,16,21) 0
I(8,12,16,22) 0
I(8,12,18,20) 0
I(8,12,18,21) 0
I(8,12,18,22) 0
I(8,12,18,23) 0
I(8,12,19,21) 0
I(8,12,19,22) 0
I(8,12,19,23) 0
I(8,12,19,25) 0
I(8,12,20,22) 0
I(8,12,20,23) 0
I(8,12,20,25) 0
I(8,12,21,23) 0
I(8,12,21,25) 0
I(8,12,22,25) 0
I(8,12,22,28) 0
I(8,12,23,25) 0
I(8,12,23,28) 0
I(8,12,23,29) 0
I(8,12,25,28) 0
I(8,12,25,29) 0
I(8,13,17,19) 0
I(8,13,17,20) 0
I(8,13,17,21) 0
I(8,13,17,22) 0
I(8,13,17,23) 0
I(8,14,20,22) 0
I(8,14,20,23) 0
I(8,14,20,25) 0
I(8,14,21,23) 0
I(8,14,21,25) 0
I(8,14,25,28) 0
I(8,14,25,29) 0
I(9,11,16,18) 0
I(9,11,16,19) 0
I(9,11,16,20) 0
I(9,11,16,21) 0
I(9,11,16,22) 0
I(9,11,20,22) 0
I(9,11,20,23) 0
I(9,11,20,25) 0
I(9,11,21,23) 0
I(9,11,21,25) 0
I(9,11,25,28) 0
I(9,11,25,29) 0
I(9,12,16,18) 0
I(9,12,16,19) 0
I(9,12,16,20) 0
I(9,12,16,21) 0
I(9,12,16,22) 0
I(9,12,18,20) 0
I(9,12,18,21) 0
I(9,12,18,22) 0
I(9,12,18,23) 0
I(9,12,19,21) 0
I(9,12,19,22) 0
I(9,12,19,23) 0
I(9,12,19,25) 0
I(9,12,20,22) 0
I(9,12,20,23) 0
I(9,12,20,25) 0
I(9,12,21,23) 0
I(9,12,21,25) 0
I(9,12,22,25) 0
I(9,12,22,28) 0
I(9,12,23,25) 0
I(9,12,23,28) 0
I(9,12,23,29) 0
I(9,12,25,28) 0
I(9,12,25,29) 0
I(9,13,17,19) 0
I(9,13,17,20) 0
I(9,13,17,21) 0
I(9,13,17,22) 0
I(9,13,17,23) 0
I(9,14,20,22) 0
I(9,14,20,23) 0
I(9,14,20,25) 0
I(9,14,21,23) 0
I(9,14,21,25) 0
I(9,14,25,28) 0
I(9,14,25,29) 0
I(9,15,19,21) 0
I(9,15,19,22) 0
I(9,15,19,23) 0
I(9,15,19,25) 0
I(9,15,20,22) 0
I(9,15,20,23) 0
I(9,15,20,25) 0
I(9,15,21,23) 0
I(9,15,21,25) 0
I(9,15,22,25) 0
I(9,15,22,28) 0
I(9,15,23,25) 0
I(9,15,23,28) 0
I(9,15,23,29) 0
I(9,15,25,28) 0
I(9,15,25,29) 0
I(10,12,16,20) 0
I(10,12,16,21) 0
I(10,12,18,20) 0
I(10,12,18,21) 0
I(10,12,19,21) 0
I(10,12,19,25) 0
I(10,12,20,25) 0
I(10,12,21,25) 0
I(10,12,22,25) 0
I(10,12,22,28) 0
I(10,12,23,25) 0
I(10,12,23,28) 0
I(10,12,25,28) 0
I(10,13,17,20) 0
I(10,13,17,21) 0
I(10,14,20,25) 0
I(10,14,21,25) 0
I(10,14,25,28) 0
I(10,15,19,21) 0
I(10,15,19,25) 0
I(10,15,20,25) 0
I(10,15,21,25) 0
I(10,15,22,25) 0
I(10,15,22,28) 0
I(10,15,23,25) 0
I(10,15,23,28) 0
I(10,15,25,28) 0
I(10,16,24,28) 0
I(10,16,26,28) 0
I(11,13,17,20) 0
I(11,13,17,21) 0
I(11,14,20,25) 0
I(11,14,21,25) 0
I(11,14,25,28) 0
I(11,15,19,21) 0
I(11,15,19,25) 0
I(11,15,20,25) 0
I(11,15,21,25) 0
I(11,15,22,25) 0
I(11,15,22,28) 0
I(11,15,23,25) 0
I(11,15,23,28) 0
I(11,15,25,28) 0
I(11,16,24,28) 0
I(11,16,26,28) 0
I(11,17,21,25) 0
I(11,17,22,25) 0
I(11,17,22,28) 0
I(11,17,23,25) 0
I(11,17,23,28) 0
I(11,17,25,28) 0
I(12,14,20,22) 0
I(12,14,20,23) 0
I(12,14,20,25) 0
I(12,14,21,23) 0
I(12,14,21,25) 0
I(12,14,25,28) 0
I(12,14,25,29) 0
I(12,15,19,21) 0
I(12,15,19,22) 0
I(12,15,19,23) 0
I(12,15,19,25) 0
I(12,15,20,22) 0
I(12,15,20,23) 0
I(12,15,20,25) 0
I(12,15,21,23) 0
I(12,15,21,25) 0
I(12,15,22,25) 0
I(12,15,22,28) 0
I(12,15,23,25) 0
I(12,15,23,28) 0
I(12,15,23,29) 0
I(12,15,25,28) 0
I(12,15,25,29) 0
I(12,16,24,28) 0
I(12,16,24,29) 0
I(12,16,26,28) 0
I(12,16,26,29) 0
I(12,17,21,23) 0
I(12,17,21,25) 0
I(12,17,22,25) 0
I(12,17,22,28) 0
I(12,17,23,25) 0
I(12,17,23,28) 0
I(12,17,23,29) 0
I(12,17,25,28) 0
I(12,17,25,29) 0
I(14,16,24,28) 0
I(14,16,26,28) 0
I(14,17,21,25) 0
I(14,17,22,25) 0
I(14,17,22,28) 0
I(14,17,23,25) 0
I(14,17,23,28) 0
I(14,17,25,28) 0
I(14,20,24,28) 0
I(14,20,26,28) 0
I(15,17,21,23) 0
I(15,17,21,25) 0
I(15,17,22,25) 0
I(15,17,22,28) 0
I(15,17,23,25) 0
I(15,17,23,28) 0
I(15,17,23,29) 0
I(15,17,25,28) 0
I(15,17,25,29) 0
I(15,20,24,28) 0
I(15,20,24,29) 0
I(15,20,26,28) 0
I(15,20,26,29) 0
I(15,21,26,28) 0
I(15,21,26,29) 0
I(16,20,24,26) 0
I(16,20,24,27) 0
I(17,20,24,28) 0
I(17,20,24,29) 0
I(17,20,26,28) 0
I(17,20,26,29) 0
I(17,21,26,28) 0
I(17,21,26,29) 0
B(1,2,16,18) 0
B(1,2,16,19) 0
B(1,2,16,20) 0
B(1,2,16,21) 0
B(1,2,16,22) 0
B(1,2,20,22) 0
B(1,2,20,23) 0
B(1,2,20,25) 0
B(1,2,21,23) 0
B(1,2,21,25) 0
B(2,3,10,16) 0
B(2,3,11,16) 0
B(2,3,12,16) 0
B(2,3,14,16) 0
B(2,3,14,20) 0
B(2,3,15,20) 0
B(2,3,15,21) 0
B(2,3,17,20) 0
B(2,3,17,21) 0
B(3,4,8,10) 0
B(3,4,8,11) 0
B(3,4,8,12) 0
B(3,4,8,14) 0
B(3,4,9,11) 0
B(3,4,9,12) 0
B(3,4,9,14) 0
B(3,4,9,15) 0
B(3,4,10,12) 0
B(3,4,10,14) 0
B(3,4,10,15) 0
B(3,4,11,14) 0
B(3,4,11,15) 0
B(3,4,11,17) 0
B(3,4,12,14) 0
B(3,4,12,15) 0
B(3,4,12,17) 0
B(3,4,14,17) 0
B(3,4,15,17) 0
B(3,4,24,26) 0
B(3,4,24,27) 0
B(4,5,20,24) 0
B(4,5,20,26) 0
B(4,5,21,24) 0
B(4,5,21,26) 0
B(4,5,21,27) 0
B(4,5,25,27) 0
B(5,6,10,16) 0
B(5,6,11,16) 0
B(5,6,12,16) 0
B(5,6,14,16) 0
B(5,6,14,20) 0
B(5,6,15,20) 0
B(5,6,15,21) 0
B(5,6,17,20) 0
B(5,6,17,21) 0
B(6,7,12,14) 0
B(6,7,12,15) 0
B(6,7,12,17) 0
B(6,7,15,17) 0
B(7,8,13,15) 0
B(7,8,13,17) 0
B(8,9,13,16) 0
B(8,9,13,18) 0
B(8,9,13,19) 0
B(8,9,16,18) 0
B(8,9,16,19) 0
B(8,9,16,20) 0
B(8,9,16,21) 0
B(8,9,16,22) 0
B(8,9,18,20) 0
B(8,9,18,21) 0
B(8,9,18,22) 0
B(8,9,18,23) 0
B(8,9,19,21) 0
B(8,9,19,22) 0
B(8,9,19,23) 0
B(8,9,19,25) 0
B(8,9,20,22) 0
B(8,9,20,23) 0
B(8,9,20,25) 0
B(8,9,21,23) 0
B(8,9,21,25) 0
B(8,9,22,25) 0
B(8,9,23,25) 0
B(9,10,16,18) 0
B(9,10,16,19) 0
B(9,10,16,20) 0
B(9,10,16,21) 0
B(9,10,16,22) 0
B(9,10,20,22) 0
B(9,10,20,23) 0
B(9,10,20,25) 0
B(9,10,21,23) 0
B(9,10,21,25) 0
B(10,11,16,20) 0
B(10,11,16,21) 0
B(10,11,20,25) 0
B(10,11,21,25) 0
B(4,6,10,11) 0
B(3,6,10,11) 0
B(11,12,16,20) 0
B(11,12,16,21) 0
B(11,12,18,20) 0
B(11,12,18,21) 0
B(11,12,19,21) 0
B(11,12,19,25) 0
B(11,12,20,25) 0
B(11,12,21,25) 0
B(11,12,22,25) 0
B(11,12,23,25) 0
B(4,6,11,12) 0
B(3,6,11,12) 0
B(12,13,17,19) 1
B(12,13,17,20) 0
B(12,13,17,21) 0
B(12,13,17,22) 0
B(12,13,17,23) 0
B(6,9,13,14) 0
B(4,9,13,14) 0
B(3,9,13,14) 0
B(6,8,13,14) 0
B(4,8,13,14) 0
B(3,8,13,14) 0
B(14,15,19,21) 0
B(14,15,19,25) 0
B(14,15,20,25) 0
B(14,15,21,25) 0
B(14,15,22,25) 0
B(14,15,23,25) 0
B(4,6,14,15) 0
B(3,6,14,15) 0
B(5,7,15,16) 0
B(2,7,15,16) 0
B(2,6,15,16) 0
B(16,17,21,24) 0
B(16,17,21,26) 0
B(16,17,21,27) 0
B(16,17,22,24) 0
B(16,17,22,26) 0
B(16,17,22,27) 0
B(16,17,23,26) 0
B(16,17,23,27) 0
B(16,17,25,27) 0
B(7,12,16,17) 0
B(6,12,16,17) 0
B(7,11,16,17) 0
B(6,11,16,17) 0
B(7,10,16,17) 0
B(6,10,16,17) 0
B(4,10,16,17) 0
B(7,9,16,17) 0
B(6,9,16,17) 0
B(4,9,16,17) 0
B(3,9,16,17) 0
B(6,8,16,17) 0
B(4,8,16,17) 0
B(3,8,16,17) 0
B(3,5,16,17) 0
B(9,13,17,18) 0
B(8,13,17,18) 0
B(9,12,18,19) 0
B(8,12,18,19) 0
B(12,15,19,20) 0
B(11,15,19,20) 0
B(10,15,19,20) 0
B(9,15,19,20) 0
B(10,12,19,20) 0
B(9,12,19,20) 0
B(8,12,19,20) 0
B(5,9,19,20) 0
B(5,8,19,20) 0
B(2,8,19,20) 0
B(12,15,20,21) 0
B(11,15,20,21) 0
B(10,15,20,21) 0
B(9,15,20,21) 0
B(12,14,20,21) 0
B(11,14,20,21) 0
B(10,14,20,21) 0
B(9,14,20,21) 0
B(8,14,20,21) 0
B(10,12,20,21) 0
B(9,12,20,21) 0
B(8,12,20,21) 0
B(9,11,20,21) 0
B(8,11,20,21) 0
B(5,11,20,21) 0
B(8,10,20,21) 0
B(5,10,20,21) 0
B(5,9,20,21) 0
B(5,8,20,21) 0
B(2,8,20,21) 0
B(2,5,20,21) 0
B(15,17,21,22) 0
B(12,17,21,22) 0
B(12,15,21,22) 0
B(9,15,21,22) 0
B(12,14,21,22) 0
B(9,14,21,22) 0
B(8,14,21,22) 0
B(9,12,21,22) 0
B(8,12,21,22) 0
B(9,11,21,22) 0
B(8,11,21,22) 0
B(8,10,21,22) 0
B(15,17,22,23) 0
B(12,17,22,23) 0
B(12,15,22,23) 0
B(9,15,22,23) 0
B(9,12,22,23) 0
B(8,12,22,23) 0
B(6,12,23,24) 0
B(6,9,23,24) 0
B(4,9,23,24) 0
B(3,9,23,24) 0
B(6,8,23,24) 1
B(4,8,23,24) 0
B(3,8,23,24) 0
B(17,20,24,25) 0
B(15,20,24,25) 0
B(14,20,24,25) 0
B(14,16,24,25) 0
B(12,16,24,25) 0
B(11,16,24,25) 0
B(10,16,24,25) 0
B(2,6,24,25) 0
B(6,12,25,26) 0
B(6,11,25,26) 0
B(6,10,25,26) 0
B(4,10,25,26) 0
B(6,9,25,26) 0
B(4,9,25,26) 0
B(3,9,25,26) 0
B(6,8,25,26) 0
B(4,8,25,26) 0
B(3,8,25,26) 0
B(3,5,25,26) 0
B(16,21,26,27) 0
B(16,20,26,27) 0
B(4,6,26,27) 0
B(3,6,26,27) 0
P(1,6) 0
P(1,7) 0
P(1,13) 0
P(1,16) 0
P(1,18) 0
P(1,19) 0
P(1,20) 0
P(1,21) 0
P(1,22) 0
P(1,23) 0
P(1,25) 0
P(1,28) 0
P(1,29) 1
P(2,6) 0
P(2,16) 0
P(2,20) 0
P(2,21) 0
P(2,25) 0
P(2,28) 1
P(3,8) 0
P(3,9) 0
P(3,10) 0
P(3,11) 0
P(3,12) 0
P(3,14) 0
P(3,15) 0
P(3,17) 0
P(3,24) 0
P(3,26) 0
P(3,27) 1
P(4,8) 0
P(4,9) 0
P(4,10) 0
P(4,11) 0
P(4,12) 0
P(4,14) 0
P(4,15) 0
P(4,17) 0
P(4,24) 0
P(4,26) 1
P(4,27) 0
P(5,16) 0
P(5,20) 0
P(5,21) 0
P(5,25) 1
P(5,28) 0
P(6,10) 0
P(6,11) 0
P(6,12) 0
P(6,14) 0
P(6,15) 0
P(6,17) 0
P(6,24) 1
P(6,26) 0
P(6,27) 0
P(7,12) 0
P(7,15) 0
P(7,17) 0
P(8,13) 0
P(8,16) 0
P(8,18) 0
P(8,19) 0
P(8,20) 0
P(8,21) 0
P(8,22) 0
P(8,23) 1
P(8,25) 0
P(8,28) 0
P(8,29) 0
P(9,13) 0
P(9,16) 0
P(9,18) 0
P(9,19) 0
P(9,20) 0
P(9,21) 0
P(9,22) 1
P(9,23) 0
P(9,25) 0
P(9,28) 0
P(9,29) 0
P(10,16) 0
P(10,20) 0
P(10,21) 1
P(10,25) 0
P(10,28) 0
P(11,16) 0
P(11,20) 1
P(11,21) 0
P(11,25) 0
P(11,28) 0
P(12,16) 0
P(12,18) 0
P(12,19) 1
P(12,20) 0
P(12,21) 0
P(12,22) 0
P(12,23) 0
P(12,25) 0
P(12,28) 0
P(12,29) 0
P(13,17) 1
P(14,20) 0
P(14,21) 0
P(14,25) 0
P(14,28) 0
P(15,19) 0
P(15,20) 0
P(15,21) 0
P(15,22) 0
P(15,23) 0
P(15,25) 0
P(15,28) 0
P(15,29) 0
P(16,24) 0
P(16,26) 0
P(16,27) 0
P(17,21) 0
P(17,22) 0
P(17,23) 0
P(17,25) 0
P(17,28) 0
P(17,29) 0
P(20,24) 0
P(20,26) 0
P(20,27) 0
P(21,26) 0
P(21,27) 0
P(24,28) 0
Q(1,6) 0
Q(1,13) 0
Q(1,16) 0
Q(1,18) 0
Q(1,19) 0
Q(1,20) 0
Q(1,23) 0
Q(1,25) 0
Q(1,28) 0
Q(2,6) 0
Q(2,20) 0
Q(2,21) 0
Q(3,8) 0
Q(3,14) 0
Q(3,17) 0
Q(3,24) 0
Q(3,26) 0
Q(4,8) 0
Q(4,9) 0
Q(4,10) 0
Q(4,11) 0
Q(4,12) 0
Q(4,14) 0
Q(4,15) 0
Q(4,24) 0
Q(4,27) 0
Q(5,20) 0
Q(5,21) 0
Q(6,10) 0
Q(6,11) 0
Q(6,12) 0
Q(6,14) 0
Q(6,15) 0
Q(6,17) 0
Q(6,24) 0
Q(6,26) 0
Q(6,27) 0
Q(7,12) 0
Q(7,15) 0
Q(8,13) 0
Q(8,16) 0
Q(8,18) 0
Q(8,25) 0
Q(8,28) 0
Q(9,13) 0
Q(9,16) 0
Q(9,18) 0
Q(9,19) 0
Q(9,20) 0
Q(9,23) 0
Q(9,25) 0
Q(9,28) 0
Q(10,16) 0
Q(10,20) 0
Q(10,25) 0
Q(10,28) 0
Q(11,16) 0
Q(11,25) 0
Q(11,28) 0
Q(12,16) 0
Q(12,19) 0
Q(12,20) 0
Q(12,21) 0
Q(12,22) 0
Q(12,23) 0
Q(12,25) 0
Q(12,28) 0
Q(12,29) 0
Q(13,17) 0
Q(14,25) 0
Q(14,28) 0
Q(15,19) 0
Q(15,20) 0
Q(15,21) 0
Q(15,22) 0
Q(15,23) 0
Q(15,29) 0
Q(16,27) 0
Q(17,21) 0
Q(17,22) 0
Q(17,23) 0
Q(17,25) 0
Q(17,28) 0
Q(17,29) 0
Q(20,24) 0
Q(20,26) 0
Q(21,26) 0
Q(21,27) 0
Q(24,28) 0
F(1,5) 0
F(1,6) 0
F(1,7) 0
F(1,8) 0
F(1,9) 0
F(1,10) 0
F(1,11) 0
F(1,12) 0
F(1,13) 0
F(1,14) 0
F(1,15) 0
F(1,16) 0
F(1,17) 0
F(1,18) 0
F(1,19) 0
F(1,20) 0
F(1,21) 0
F(1,22) 0
F(1,23) 0
F(1,24) 0
F(1,25) 0
F(1,26) 0
F(1,27) 0
F(1,28) 0
F(1,29) 1
F(2,6) 0
F(2,7) 0
F(2,8) 0
F(2,9) 0
F(2,10) 0
F(2,11) 0
F(2,12) 0
F(2,13) 0
F(2,14) 0
F(2,15) 0
F(2,16) 0
F(2,17) 0
F(2,18) 0
F(2,19) 0
F(2,20) 0
F(2,21) 0
F(2,22) 0
F(2,23) 0
F(2,24) 0
F(2,25) 0
F(2,26) 0
F(2,27) 0
F(2,28) 0
F(2,29) 0
F(3,7) 0
F(3,8) 0
F(3,9) 0
F(3,10) 0
F(3,11) 0
F(3,12) 0
F(3,13) 0
F(3,14) 0
F(3,15) 0
F(3,16) 0
F(3,17) 0
F(3,18) 0
F(3,19) 0
F(3,20) 0
F(3,21) 0
F(3,22) 0
F(3,23) 0
F(3,24) 0
F(3,25) 0
F(3,26) 0
F(3,27) 0
F(3,28) 0
F(3,29) 0
F(4,8) 0
F(4,9) 0
F(4,10) 0
F(4,11) 0
F(4,12) 0
F(4,13) 0
F(4,14) 0
F(4,15) 0
F(4,16) 0
F(4,17) 0
F(4,18) 0
F(4,19) 0
F(4,20) 0
F(4,21) 0
F(4,22) 0
F(4,23) 0
F(4,24) 0
F(4,25) 0
F(4,26) 0
F(4,27) 0
F(4,28) 0
F(4,29) 0
F(5,9) 0
F(5,10) 0
F(5,11) 0
F(5,12) 0
F(5,13) 0
F(5,14) 0
F(5,15) 0
F(5,16) 0
F(5,17) 0
F(5,18) 0
F(5,19) 0
F(5,20) 0
F(5,21) 0
F(5,22) 0
F(5,23) 0
F(5,24) 0
F(5,25) 0
F(5,26) 0
F(5,27) 0
F(5,28) 0
F(5,29) 0
F(6,10) 0
F(6,11) 0
F(6,12) 0
F(6,13) 0
F(6,14) 0
F(6,15) 0
F(6,16) 0
F(6,17) 0
F(6,18) 0
F(6,19) 0
F(6,20) 0
F(6,21) 0
F(6,22) 0
F(6,23) 0
F(6,24) 0
F(6,25) 0
F(6,26) 0
F(6,27) 0
F(6,28) 0
F(6,29) 0
F(7,11) 0
F(7,12) 0
F(7,13) 0
F(7,14) 0
F(7,15) 0
F(7,16) 0
F(7,17) 0
F(7,18) 0
F(7,19) 0
F(7,20) 0
F(7,21) 0
F(7,22) 0
F(7,23) 0
F(7,24) 0
F(7,25) 0
F(7,26) 0
F(7,27) 0
F(7,28) 0
F(7,29) 0
F(8,12) 0
F(8,13) 0
F(8,14) 0
F(8,15) 0
F(8,16) 0
F(8,17) 0
F(8,18) 0
F(8,19) 0
F(8,20) 0
F(8,21) 0
F(8,22) 0
F(8,23) 0
F(8,24) 0
F(8,25) 0
F(8,26) 0
F(8,27) 0
F(8,28) 0
F(8,29) 0
F(9,13) 0
F(9,14) 0
F(9,15) 0
F(9,16) 0
F(9,17) 0
F(9,18) 0
F(9,19) 0
F(9,20) 0
F(9,21) 0
F(9,22) 0
F(9,23) 0
F(9,24) 0
F(9,25) 0
F(9,26) 0
F(9,27) 0
F(9,28) 0
F(9,29) 0
F(10,14) 0
F(10,15) 0
F(10,16) 0
F(10,17) 0
F(10,18) 0
F(10,19) 0
F(10,20) 0
F(10,21) 0
F(10,22) 0
F(10,23) 0
F(10,24) 0
F(10,25) 0
F(10,26) 0
F(10,27) 0
F(10,28) 0
F(10,29) 0
F(11,15) 0
F(11,16) 0
F(11,17) 0
F(11,18) 0
F(11,19) 0
F(11,20) 0
F(11,21) 0
F(11,22) 0
F(11,23) 0
F(11,24) 0
F(11,25) 0
F(11,26) 0
F(11,27) 0
F(11,28) 0
F(11,29) 0
F(12,16) 0
F(12,17) 0
F(12,18) 0
F(12,19) 0
F(12,20) 0
F(12,21) 0
F(12,22) 0
F(12,23) 0
F(12,24) 0
F(12,25) 0
F(12,26) 0
F(12,27) 0
F(12,28) 0
F(12,29) 0
F(13,17) 0
F(13,18) 0
F(13,19) 0
F(13,20) 0
F(13,21) 0
F(13,22) 0
F(13,23) 0
F(13,24) 0
F(13,25) 0
F(13,26) 0
F(13,27) 0
F(13,28) 0
F(13,29) 0
F(14,18) 0
F(14,19) 0
F(14,20) 0
F(14,21) 0
F(14,22) 0
F(14,23) 0
F(14,24) 0
F(14,25) 0
F(14,26) 0
F(14,27) 0
F(14,28) 0
F(14,29) 0
F(15,19) 0
F(15,20) 0
F(15,21) 0
F(15,22) 0
F(15,23) 0
F(15,24) 0
F(15,25) 0
F(15,26) 0
F(15,27) 0
F(15,28) 0
F(15,29) 0
F(16,20) 0
F(16,21) 0
F(16,22) 0
F(16,23) 0
F(16,24) 0
F(16,25) 0
F(16,26) 0
F(16,27) 0
F(16,28) 0
F(16,29) 0
F(17,21) 0
F(17,22) 0
F(17,23) 0
F(17,24) 0
F(17,25) 0
F(17,26) 0
F(17,27) 0
F(17,28) 0
F(17,29) 0
F(18,22) 0
F(18,23) 0
F(18,24) 0
F(18,25) 0
F(18,26) 0
F(18,27) 0
F(18,28) 0
F(18,29) 0
F(19,23) 0
F(19,24) 0
F(19,25) 0
F(19,26) 0
F(19,27) 0
F(19,28) 0
F(19,29) 0
F(20,24) 0
F(20,25) 0
F(20,26) 0
F(20,27) 0
F(20,28) 0
F(20,29) 0
F(21,25) 0
F(21,26) 0
F(21,27) 0
F(21,28) 0
F(21,29) 0
F(22,26) 0
F(22,27) 0
F(22,28) 0
F(22,29) 0
F(23,27) 0
F(23,28) 0
F(23,29) 0
F(24,28) 0
F(24,29) 0
F(25,29) 0
L(1,5) 0
L(1,6) 0
L(1,7) 0
L(1,8) 0
L(1,9) 0
L(1,10) 0
L(1,11) 0
L(1,12) 0
L(1,13) 0
L(1,14) 0
L(1,15) 0
L(1,16) 0
L(1,17) 0
L(1,18) 0
L(1,19) 0
L(1,20) 0
L(1,21) 0
L(1,22) 0
L(1,23) 0
L(1,24) 0
L(1,25) 0
L(1,26) 0
L(1,27) 0
L(1,28) 0
L(1,29) 0
L(2,6) 0
L(2,7) 0
L(2,8) 0
L(2,9) 0
L(2,10) 0
L(2,11) 0
L(2,12) 0
L(2,13) 0
L(2,14) 0
L(2,15) 0
L(2,16) 0
L(2,17) 0
L(2,18) 0
L(2,19) 0
L(2,20) 0
L(2,21) 0
L(2,22) 0
L(2,23) 0
L(2,24) 0
L(2,25) 0
L(2,26) 0
L(2,27) 0
L(2,28) 0
L(2,29) 0
L(3,7) 0
L(3,8) 0
L(3,9) 0
L(3,10) 0
L(3,11) 0
L(3,12) 0
L(3,13) 0
L(3,14) 0
L(3,15) 0
L(3,16) 0
L(3,17) 0
L(3,18) 0
L(3,19) 0
L(3,20) 0
L(3,21) 0
L(3,22) 0
L(3,23) 0
L(3,24) 0
L(3,25) 0
L(3,26) 0
L(3,27) 0
L(3,28) 0
L(3,29) 0
L(4,8) 0
L(4,9) 0
L(4,10) 0
L(4,11) 0
L(4,12) 0
L(4,13) 0
L(4,14) 0
L(4,15) 0
L(4,16) 0
L(4,17) 0
L(4,18) 0
L(4,19) 0
L(4,20) 0
L(4,21) 0
L(4,22) 0
L(4,23) 0
L(4,24) 0
L(4,25) 0
L(4,26) 0
L(4,27) 0
L(4,28) 0
L(4,29) 0
L(5,9) 0
L(5,10) 0
L(5,11) 0
L(5,12) 0
L(5,13) 0
L(5,14) 0
L(5,15) 0
L(5,16) 0
L(5,17) 0
L(5,18) 0
L(5,19) 0
L(5,20) 0
L(5,21) 0
L(5,22) 0
L(5,23) 0
L(5,24) 0
L(5,25) 1
L(5,26) 0
L(5,27) 0
L(5,28) 0
L(5,29) 0
L(6,10) 0
L(6,11) 0
L(6,12) 0
L(6,13) 0
L(6,14) 0
L(6,15) 0
L(6,16) 0
L(6,17) 0
L(6,18) 0
L(6,19) 0
L(6,20) 0
L(6,21) 0
L(6,22) 0
L(6,23) 0
L(6,24) 0
L(6,25) 0
L(6,26) 0
L(6,27) 0
L(6,28) 0
L(6,29) 0
L(7,11) 0
L(7,12) 0
L(7,13) 0
L(7,14) 0
L(7,15) 0
L(7,16) 0
L(7,17) 0
L(7,18) 0
L(7,19) 0
L(7,20) 0
L(7,21) 0
L(7,22) 0
L(7,23) 0
L(7,24) 0
L(7,25) 0
L(7,26) 0
L(7,27) 0
L(7,28) 0
L(7,29) 0
L(8,12) 0
L(8,13) 0
L(8,14) 0
L(8,15) 0
L(8,16) 0
L(8,17) 0
L(8,18) 0
L(8,19) 0
L(8,20) 0
L(8,21) 0
L(8,22) 0
L(8,23) 0
L(8,24) 0
L(8,25) 0
L(8,26) 0
L(8,27) 0
L(8,28) 0
L(8,29) 0
L(9,13) 0
L(9,14) 0
L(9,15) 0
L(9,16) 0
L(9,17) 0
L(9,18) 0
L(9,19) 0
L(9,20) 0
L(9,21) 0
L(9,22) 0
L(9,23) 0
L(9,24) 0
L(9,25) 0
L(9,26) 0
L(9,27) 0
L(9,28) 0
L(9,29) 0
L(10,14) 0
L(10,15) 0
L(10,16) 0
L(10,17) 0
L(10,18) 0
L(10,19) 0
L(10,20) 0
L(10,21) 0
L(10,22) 0
L(10,23) 0
L(10,24) 0
L(10,25) 0
L(10,26) 0
L(10,27) 0
L(10,28) 0
L(10,29) 0
L(11,15) 0
L(11,16) 0
L(11,17) 0
L(11,18) 0
L(11,19) 0
L(11,20) 1
L(11,21) 0
L(11,22) 0
L(11,23) 0
L(11,24) 0
L(11,25) 0
L(11,26) 0
L(11,27) 0
L(11,28) 0
L(11,29) 0
L(12,16) 0
L(12,17) 0
L(12,18) 0
L(12,19) 0
L(12,20) 0
L(12,21) 0
L(12,22) 0
L(12,23) 0
L(12,24) 0
L(12,25) 0
L(12,26) 0
L(12,27) 0
L(12,28) 0
L(12,29) 0
L(13,17) 0
L(13,18) 0
L(13,19) 0
L(13,20) 0
L(13,21) 0
L(13,22) 0
L(13,23) 0
L(13,24) 0
L(13,25) 0
L(13,26) 0
L(13,27) 0
L(13,28) 0
L(13,29) 0
L(14,18) 0
L(14,19) 0
L(14,20) 0
L(14,21) 0
L(14,22) 0
L(14,23) 0
L(14,24) 0
L(14,25) 0
L(14,26) 0
L(14,27) 0
L(14,28) 0
L(14,29) 0
L(15,19) 0
L(15,20) 0
L(15,21) 0
L(15,22) 0
L(15,23) 0
L(15,24) 0
L(15,25) 0
L(15,26) 0
L(15,27) 0
L(15,28) 0
L(15,29) 0
L(16,20) 0
L(16,21) 0
L(16,22) 0
L(16,23) 0
L(16,24) 0
L(16,25) 0
L(16,26) 0
L(16,27) 0
L(16,28) 0
L(16,29) 0
L(17,21) 0
L(17,22) 0
L(17,23) 0
L(17,24) 0
L(17,25) 0
L(17,26) 0
L(17,27) 0
L(17,28) 0
L(17,29) 0
L(18,22) 0
L(18,23) 0
L(18,24) 0
L(18,25) 0
L(18,26) 0
L(18,27) 0
L(18,28) 0
L(18,29) 0
L(19,23) 0
L(19,24) 0
L(19,25) 0
L(19,26) 0
L(19,27) 0
L(19,28) 0
L(19,29) 0
L(20,24) 0
L(20,25) 0
L(20,26) 0
L(20,27) 0
L(20,28) 0
L(20,29) 0
L(21,25) 0
L(21,26) 0
L(21,27) 0
L(21,28) 0
L(21,29) 0
L(22,26) 0
L(22,27) 0
L(22,28) 0
L(22,29) 0
L(23,27) 0
L(23,28) 0
L(23,29) 0
L(24,28) 0
L(24,29) 0
L(25,29) 0
X(2) 1
X(3) 1
X(4) 1
X(5) 1
X(6) 1
X(7) 1
X(8) 1
X(9) 1
X(10) 1
X(11) 1
X(12) 0
X(13) 0
X(14) 1
X(15) 1
X(16) 1
X(17) 0
X(18) 1
X(19) 0
X(20) 1
X(21) 1
X(22) 1
X(23) 1
X(24) 1
X(25) 1
X(26) 1
X(27) 1
X(28) 1
X(1) 1
X(29) 0
Y(2) 0
Y(9) 0
Y(10) 0
Y(11) 0
Y(12) 0
Y(13) 0
Y(14) 1
Y(15) 1
Y(16) 1
Y(17) 0
Y(18) 1
Y(19) 0
Y(20) 1
Y(21) 0
Y(22) 0
Y(25) 0
Y(26) 1
Y(27) 0
Y(28) 1
Y(3) 0
Y(4) 0
Y(23) 1
Y(24) 1
Y(5) 0
Y(6) 0
Y(7) 1
Y(8) 0
Y(1) 1
Y(29) 0
Z(17) 0
Z(18) 1
Z(19) 0
Z(20) 1
Z(21) 1
Z(22) 0
Z(23) 1
Z(24) 1
Z(11) 1
Z(12) 0
Z(13) 0
Z(14) 1
Z(15) 1
Z(16) 1
Z(9) 0
Z(10) 0
Z(25) 1
Z(26) 1
Z(5) 1
Z(4) 0
Z(7) 1
Z(8) 1
Z(6) 1
Z(3) 1
Z(1) 1
Z(2) 1
Z(27) 1
Z(28) 1
Z(29) 0
Q(1,5) 0
Q(1,17) 0
Q(1,26) 0
Q(2,9) 0
Q(2,10) 0
Q(2,11) 0
Q(2,12) 0
Q(2,13) 0
Q(2,15) 0
Q(2,18) 0
Q(2,27) 0
Q(3,13) 0
Q(3,16) 0
Q(3,18) 0
Q(3,25) 0
Q(3,28) 0
Q(4,21) 0
Q(4,22) 0
Q(4,29) 0
Q(5,9) 0
Q(5,10) 0
Q(5,11) 0
Q(5,12) 0
Q(5,13) 0
Q(5,15) 0
Q(5,18) 0
Q(5,27) 0
Q(6,13) 0
Q(6,16) 0
Q(6,18) 0
Q(7,14) 0
Q(7,19) 0
Q(7,20) 0
Q(7,21) 0
Q(7,22) 0
Q(7,23) 0
Q(7,24) 0
Q(7,26) 0
Q(7,29) 0
Q(8,14) 0
Q(8,17) 0
Q(8,24) 0
Q(8,26) 0
Q(9,17) 0
Q(9,26) 0
Q(10,17) 0
Q(10,22) 0
Q(10,26) 0
Q(10,29) 0
Q(11,17) 0
Q(11,19) 0
Q(11,22) 0
Q(11,23) 0
Q(11,24) 0
Q(11,26) 0
Q(11,29) 0
Q(13,21) 0
Q(13,22) 0
Q(13,26) 0
Q(13,29) 0
Q(14,19) 0
Q(14,22) 0
Q(14,23) 0
Q(14,24) 0
Q(14,26) 0
Q(14,29) 0
Q(15,27) 0
Q(16,20) 0
Q(16,21) 0
Q(16,22) 0
Q(16,23) 0
Q(16,29) 0
Q(19,25) 0
Q(19,27) 0
Q(19,28) 0
Q(20,25) 0
Q(20,28) 0
Q(23,29) 0
Q(25,29) 0
